// Objective function
max: .87x11 + .73x12 + .72x13 + .68x14 + .81x15 + .66x16 + .8x17 + .73x18 + .7x19 + .7x110 + .72x111 + .81x112 + .87x21 + .73x22 + .72x23 + .68x24 + .81x25 + .66x26 + .8x27 + .73x28 + .7x29 + .7x210 + .72x211 + .81x212 + .87x31 + .73x32 + .72x33 + .68x34 + .81x35 + .66x36 + .8x37 + .73x38 + .7x39 + .7x310 + .72x311 +  .81x312 + .87x41 + .73x42 + .72x43 + .68x44 + .81x45 + .66x46 + .8x47 + .73x48 + .7x49 + .7x410 + .72x411 + .81x412;

// Constraints
Group_1_Size: x11 + x12 + x13 + x14 + x15 + x16 + x17 + x18 + x19 + x110 + x111 + x112 = 3;
Group_2_Size: x21 + x22 + x23 + x24 + x25 + x26 + x27 + x28 + x29 + x210 + x211 + x212 = 3;
Group_3_Size: x31 + x32 + x33 + x34 + x35 + x36 + x37 + x38 + x39 + x310 + x311 +  x312 = 3;
Group_4_Size: x41 + x42 + x43 + x44 + x45 + x46 + x47 + x48 + x49 + x410 + x411 + x412 = 3;

Student_1: x11 + x21 + x31 + x41 = 1;
Student_2: x12 + x22 + x32 + x42 = 1;
Student_3: x13 + x23 + x33 + x43 = 1;
Student_4: x14 + x24 + x34 + x44 = 1;
Student_5: x15 + x25 + x35 + x45 = 1;
Student_6: x16 + x26 + x36 + x46 = 1;
Student_7: x17 + x27 + x37 + x47 = 1;
Student_8: x18 + x28 + x38 + x48 = 1;
Student_9: x19 + x29 + x39 + x49 = 1;
Student_10: x110 + x210 + x310 + x410 = 1;
Student_11: x111 + x211 + x311 + x411 = 1;
Student_12: x112 + x212 + x312 + x412 = 1;

Group_1_Mot: 10x11 + 5x12 + 10x13 + 5x14 + 10x15 + 6x16 + 7x17 + 7x18 + 6x19 + 5x110 + 9x111 + 10x112 >= 21;
Group_2_Mot: 10x21 + 5x22 + 10x23 + 5x24 + 10x25 + 6x26 + 7x27 + 7x28 + 6x29 + 5x210 + 9x211 + 10x212 >= 21;
Group_3_Mot: 10x31 + 5x32 + 10x33 + 5x34 + 10x35 + 6x36 + 7x37 + 7x38 + 6x39 + 5x310 + 9x311 +  10x312 >= 21;
Group_4_Mot: 10x41 + 5x42 + 10x43 + 5x44 + 10x45 + 6x46 + 7x47 + 7x48 + 6x49 + 5x410 + 9x411 + 10x412 >= 21;

Group_1_Stem: .5x11 + .5x12 + .15x13 + .15x14 + .35x15 + .5x16 + .5x17 + .35x18 + .35x19 + .35x110 + .35x111 + .15x112 < 1.5;
Group_2_Stem: .5x21 + .5x22 + .15x23 + .15x24 + .35x25 + .5x26 + .5x27 + .35x28 + .35x29 + .35x210 + .35x211 + .15x212 < 1.5;
Group_3_Stem: .5x31 + .5x32 + .15x33 + .15x34 + .35x35 + .5x36 + .5x37 + .35x38 + .35x39 + .35x310 + .35x311 +  .15x312 < 1.5;
Group_4_Stem: .5x41 + .5x42 + .15x43 + .15x44 + .35x45 + .5x46 + .5x47 + .35x48 + .35x49 + .35x410 + .35x411 + .15x412 < 1.5;

Group_1_Other: .5x11 + .5x12 + .15x13 + .15x14 + .35x15 + .5x16 + .5x17 + .35x18 + .35x19 + .35x110 + .35x111 + .15x112 > .45;
Group_2_Other: .5x21 + .5x22 + .15x23 + .15x24 + .35x25 + .5x26 + .5x27 + .35x28 + .35x29 + .35x210 + .35x211 + .15x212 > .45;
Group_3_Other: .5x31 + .5x32 + .15x33 + .15x34 + .35x35 + .5x36 + .5x37 + .35x38 + .35x39 + .35x310 + .35x311 +  .15x312 > .45;
Group_4_Other: .5x41 + .5x42 + .15x43 + .15x44 + .35x45 + .5x46 + .5x47 + .35x48 + .35x49 + .35x410 + .35x411 + .15x412 > .45;

Group_1_GPA: 3.78x11 + 3.81x12 + 3.08x13 + 3.97x14 + 3.55x15 + 3.07x16 + 3.92x17 + 3.63x18 + 3.59x19 + 3.81x110 + 3.05x111 + 3.85x112 >= 10.5;
Group_2_GPA: 3.78x21 + 3.81x22 + 3.08x23 + 3.97x24 + 3.55x25 + 3.07x26 + 3.92x27 + 3.63x28 + 3.59x29 + 3.81x210 + 3.05x211 + 3.85x212 >= 10.5;
Group_3_GPA: 3.78x31 + 3.81x32 + 3.08x33 + 3.97x34 + 3.55x35 + 3.07x36 + 3.92x37 + 3.63x38 + 3.59x39 + 3.81x310 + 3.05x311 +  3.85x312 >= 10.5;
Group_4_GPA: 3.78x41 + 3.81x42 + 3.08x43 + 3.97x44 + 3.55x45 + 3.07x46 + 3.92x47 + 3.63x48 + 3.59x49 + 3.81x410 + 3.05x411 + 3.85x412 >= 10.5;

Group_1_Coeff: 87x11 + .73x12 + .72x13 + .68x14 + .81x15 + .66x16 + .8x17 + .73x18 + .7x19 + .7x110 + .72x111 + .81x112 >= 2.23;
Group_2_Coeff: .87x21 + .73x22 + .72x23 + .68x24 + .81x25 + .66x26 + .8x27 + .73x28 + .7x29 + .7x210 + .72x211 + .81x212 >= 2.23;
Group_3_Coeff: .87x31 + .73x32 + .72x33 + .68x34 + .81x35 + .66x36 + .8x37 + .73x38 + .7x39 + .7x310 + .72x311 +  .81x312 >= 2.23;
Group_4_Coeff: .87x41 + .73x42 + .72x43 + .68x44 + .81x45 + .66x46 + .8x47 + .73x48 + .7x49 + .7x410 + .72x411 + .81x412 >= 2.23;


bin x11, x12, x13, x14, x15, x16, x17, x18, x19, x110, x111, x112, x21, x22, x23, x24, x25, x26, x27, x28, x29, x210, x211, x212, x31, x32, x33, x34, x35, x36, x37, x38, x39, x310, x311, x312, x41, x42, x43, x44, x45, x46, x47, x48, x49, x410, x411, x412;

